55
1 0 65
2 0 88
2 1 64
3 0 36
3 1 52
3 2 87
4 0 50
4 1 99
4 2 73
4 3 67
5 0 6
5 1 57
5 2 27
5 3 29
5 4 61
6 0 13
6 1 63
6 2 55
6 3 4
6 4 32
6 5 85
7 0 7
7 1 33
7 2 46
7 3 80
7 4 93
7 5 1
7 6 86
8 0 86
8 1 20
8 2 98
8 3 48
8 4 2
8 5 2
8 6 84
8 7 8
9 0 13
9 1 98
9 2 78
9 3 43
9 4 2
9 5 99
9 6 36
9 7 7
9 8 41
10 0 77
10 1 93
10 2 80
10 3 100
10 4 83
10 5 52
10 6 99
10 7 24
10 8 51
10 9 35
11 0 22
11 1 45
11 2 32
11 3 41
11 4 82
11 5 45
11 6 83
11 7 68
11 8 56
11 9 87
11 10 75
12 0 90
12 1 31
12 2 69
12 3 98
12 4 7
12 5 48
12 6 82
12 7 75
12 8 11
12 9 76
12 10 64
12 11 18
13 0 13
13 1 7
13 2 90
13 3 82
13 4 52
13 5 15
13 6 36
13 7 100
13 8 67
13 9 1
13 10 4
13 11 8
13 12 98
14 0 4
14 1 13
14 2 1
14 3 67
14 4 83
14 5 64
14 6 61
14 7 25
14 8 72
14 9 57
14 10 54
14 11 97
14 12 69
14 13 12
15 0 3
15 1 46
15 2 23
15 3 21
15 4 66
15 5 24
15 6 19
15 7 31
15 8 75
15 9 16
15 10 68
15 11 32
15 12 29
15 13 62
15 14 77
16 0 19
16 1 37
16 2 28
16 3 32
16 4 23
16 5 57
16 6 66
16 7 18
16 8 53
16 9 76
16 10 62
16 11 92
16 12 84
16 13 26
16 14 96
16 15 39
17 0 84
17 1 35
17 2 30
17 3 3
17 4 71
17 5 52
17 6 10
17 7 70
17 8 27
17 9 4
17 10 69
17 11 43
17 12 30
17 13 63
17 14 24
17 15 30
17 16 74
18 0 36
18 1 41
18 2 44
18 3 76
18 4 12
18 5 100
18 6 88
18 7 7
18 8 20
18 9 70
18 10 54
18 11 90
18 12 84
18 13 5
18 14 87
18 15 42
18 16 84
18 17 86
19 0 75
19 1 72
19 2 48
19 3 100
19 4 66
19 5 51
19 6 54
19 7 15
19 8 35
19 9 10
19 10 95
19 11 95
19 12 39
19 13 39
19 14 42
19 15 68
19 16 38
19 17 5
19 18 25
20 0 32
20 1 76
20 2 88
20 3 90
20 4 79
20 5 42
20 6 15
20 7 23
20 8 44
20 9 50
20 10 49
20 11 39
20 12 43
20 13 25
20 14 49
20 15 79
20 16 31
20 17 74
20 18 17
20 19 64
21 0 1
21 1 71
21 2 87
21 3 100
21 4 15
21 5 3
21 6 41
21 7 28
21 8 23
21 9 41
21 10 44
21 11 66
21 12 20
21 13 40
21 14 25
21 15 97
21 16 44
21 17 77
21 18 65
21 19 76
21 20 21
22 0 92
22 1 58
22 2 82
22 3 95
22 4 79
22 5 61
22 6 37
22 7 20
22 8 41
22 9 37
22 10 44
22 11 84
22 12 19
22 13 73
22 14 49
22 15 96
22 16 55
22 17 23
22 18 12
22 19 74
22 20 31
22 21 90
23 0 31
23 1 78
23 2 20
23 3 83
23 4 78
23 5 16
23 6 30
23 7 75
23 8 32
23 9 91
23 10 17
23 11 71
23 12 3
23 13 72
23 14 17
23 15 60
23 16 100
23 17 24
23 18 8
23 19 94
23 20 90
23 21 96
23 22 8
24 0 46
24 1 29
24 2 83
24 3 73
24 4 12
24 5 82
24 6 4
24 7 45
24 8 71
24 9 57
24 10 49
24 11 61
24 12 27
24 13 18
24 14 100
24 15 39
24 16 79
24 17 53
24 18 27
24 19 85
24 20 8
24 21 12
24 22 3
24 23 91
25 0 64
25 1 46
25 2 10
25 3 27
25 4 4
25 5 1
25 6 11
25 7 40
25 8 11
25 9 54
25 10 18
25 11 5
25 12 87
25 13 5
25 14 78
25 15 3
25 16 9
25 17 42
25 18 63
25 19 29
25 20 89
25 21 59
25 22 29
25 23 27
25 24 72
26 0 86
26 1 85
26 2 29
26 3 71
26 4 62
26 5 81
26 6 38
26 7 19
26 8 70
26 9 15
26 10 79
26 11 81
26 12 93
26 13 9
26 14 10
26 15 68
26 16 84
26 17 9
26 18 73
26 19 41
26 20 44
26 21 11
26 22 16
26 23 90
26 24 56
26 25 7
27 0 19
27 1 34
27 2 20
27 3 22
27 4 13
27 5 77
27 6 81
27 7 66
27 8 71
27 9 13
27 10 58
27 11 32
27 12 1
27 13 66
27 14 96
27 15 17
27 16 81
27 17 5
27 18 17
27 19 42
27 20 18
27 21 80
27 22 39
27 23 94
27 24 100
27 25 50
27 26 76
28 0 29
28 1 9
28 2 26
28 3 57
28 4 91
28 5 78
28 6 24
28 7 10
28 8 55
28 9 32
28 10 10
28 11 8
28 12 86
28 13 34
28 14 97
28 15 76
28 16 76
28 17 38
28 18 3
28 19 97
28 20 98
28 21 13
28 22 87
28 23 70
28 24 99
28 25 84
28 26 33
28 27 14
29 0 8
29 1 16
29 2 36
29 3 5
29 4 38
29 5 28
29 6 21
29 7 10
29 8 12
29 9 20
29 10 83
29 11 47
29 12 22
29 13 46
29 14 46
29 15 67
29 16 40
29 17 62
29 18 71
29 19 76
29 20 96
29 21 40
29 22 57
29 23 6
29 24 12
29 25 25
29 26 34
29 27 17
29 28 73
30 0 70
30 1 7
30 2 97
30 3 47
30 4 82
30 5 34
30 6 79
30 7 91
30 8 64
30 9 37
30 10 100
30 11 18
30 12 37
30 13 68
30 14 69
30 15 7
30 16 65
30 17 85
30 18 11
30 19 67
30 20 33
30 21 23
30 22 23
30 23 3
30 24 50
30 25 44
30 26 39
30 27 45
30 28 57
30 29 14
31 0 1
31 1 27
31 2 86
31 3 39
31 4 83
31 5 33
31 6 97
31 7 56
31 8 4
31 9 47
31 10 64
31 11 62
31 12 48
31 13 79
31 14 18
31 15 25
31 16 53
31 17 43
31 18 59
31 19 18
31 20 57
31 21 14
31 22 77
31 23 56
31 24 95
31 25 100
31 26 73
31 27 37
31 28 2
31 29 88
31 30 51
32 0 22
32 1 61
32 2 58
32 3 16
32 4 90
32 5 88
32 6 82
32 7 23
32 8 59
32 9 61
32 10 46
32 11 48
32 12 71
32 13 25
32 14 47
32 15 66
32 16 65
32 17 31
32 18 81
32 19 73
32 20 91
32 21 1
32 22 7
32 23 87
32 24 47
32 25 4
32 26 51
32 27 97
32 28 32
32 29 11
32 30 97
32 31 72
33 0 48
33 1 49
33 2 62
33 3 23
33 4 8
33 5 70
33 6 70
33 7 92
33 8 9
33 9 24
33 10 66
33 11 23
33 12 96
33 13 72
33 14 24
33 15 10
33 16 22
33 17 3
33 18 55
33 19 48
33 20 73
33 21 37
33 22 11
33 23 39
33 24 19
33 25 13
33 26 43
33 27 5
33 28 12
33 29 9
33 30 63
33 31 18
33 32 39
34 0 42
34 1 2
34 2 73
34 3 96
34 4 38
34 5 94
34 6 28
34 7 48
34 8 70
34 9 93
34 10 2
34 11 89
34 12 11
34 13 28
34 14 22
34 15 24
34 16 53
34 17 49
34 18 29
34 19 17
34 20 70
34 21 99
34 22 8
34 23 97
34 24 44
34 25 53
34 26 90
34 27 14
34 28 78
34 29 72
34 30 41
34 31 68
34 32 63
34 33 74
35 0 49
35 1 78
35 2 72
35 3 42
35 4 58
35 5 57
35 6 98
35 7 88
35 8 15
35 9 89
35 10 64
35 11 59
35 12 33
35 13 53
35 14 68
35 15 59
35 16 86
35 17 32
35 18 34
35 19 16
35 20 80
35 21 86
35 22 1
35 23 14
35 24 75
35 25 95
35 26 57
35 27 76
35 28 56
35 29 95
35 30 89
35 31 69
35 32 61
35 33 63
35 34 36
36 0 59
36 1 30
36 2 25
36 3 45
36 4 48
36 5 29
36 6 85
36 7 67
36 8 61
36 9 51
36 10 16
36 11 48
36 12 64
36 13 28
36 14 44
36 15 4
36 16 46
36 17 69
36 18 26
36 19 85
36 20 81
36 21 25
36 22 96
36 23 58
36 24 57
36 25 63
36 26 38
36 27 74
36 28 40
36 29 70
36 30 11
36 31 97
36 32 8
36 33 31
36 34 12
36 35 3
37 0 76
37 1 60
37 2 87
37 3 86
37 4 93
37 5 72
37 6 8
37 7 29
37 8 86
37 9 18
37 10 64
37 11 15
37 12 75
37 13 34
37 14 62
37 15 3
37 16 95
37 17 62
37 18 8
37 19 79
37 20 91
37 21 60
37 22 37
37 23 62
37 24 72
37 25 97
37 26 99
37 27 37
37 28 41
37 29 96
37 30 15
37 31 28
37 32 44
37 33 93
37 34 86
37 35 30
37 36 92
38 0 98
38 1 77
38 2 90
38 3 60
38 4 91
38 5 52
38 6 77
38 7 60
38 8 94
38 9 10
38 10 94
38 11 50
38 12 85
38 13 40
38 14 23
38 15 16
38 16 58
38 17 15
38 18 100
38 19 41
38 20 42
38 21 86
38 22 72
38 23 62
38 24 31
38 25 37
38 26 63
38 27 59
38 28 93
38 29 22
38 30 74
38 31 37
38 32 52
38 33 92
38 34 76
38 35 96
38 36 65
38 37 83
39 0 89
39 1 94
39 2 43
39 3 24
39 4 33
39 5 59
39 6 81
39 7 80
39 8 10
39 9 95
39 10 97
39 11 51
39 12 57
39 13 82
39 14 98
39 15 80
39 16 63
39 17 91
39 18 22
39 19 46
39 20 51
39 21 30
39 22 24
39 23 50
39 24 64
39 25 18
39 26 96
39 27 6
39 28 11
39 29 47
39 30 63
39 31 13
39 32 56
39 33 67
39 34 67
39 35 57
39 36 58
39 37 17
39 38 43
40 0 66
40 1 97
40 2 83
40 3 62
40 4 41
40 5 40
40 6 60
40 7 68
40 8 2
40 9 38
40 10 33
40 11 57
40 12 47
40 13 50
40 14 31
40 15 61
40 16 5
40 17 43
40 18 97
40 19 44
40 20 25
40 21 11
40 22 76
40 23 22
40 24 46
40 25 3
40 26 39
40 27 56
40 28 30
40 29 76
40 30 71
40 31 84
40 32 47
40 33 88
40 34 96
40 35 99
40 36 63
40 37 5
40 38 25
40 39 81
41 0 54
41 1 100
41 2 42
41 3 36
41 4 45
41 5 48
41 6 72
41 7 10
41 8 68
41 9 60
41 10 80
41 11 76
41 12 67
41 13 3
41 14 17
41 15 15
41 16 96
41 17 94
41 18 100
41 19 25
41 20 96
41 21 86
41 22 81
41 23 56
41 24 52
41 25 57
41 26 69
41 27 30
41 28 48
41 29 79
41 30 87
41 31 4
41 32 81
41 33 51
41 34 87
41 35 89
41 36 9
41 37 82
41 38 56
41 39 20
41 40 32
42 0 88
42 1 78
42 2 60
42 3 38
42 4 40
42 5 46
42 6 60
42 7 56
42 8 45
42 9 38
42 10 26
42 11 10
42 12 90
42 13 89
42 14 61
42 15 54
42 16 55
42 17 27
42 18 70
42 19 38
42 20 70
42 21 77
42 22 63
42 23 39
42 24 99
42 25 17
42 26 95
42 27 40
42 28 47
42 29 53
42 30 3
42 31 66
42 32 39
42 33 72
42 34 60
42 35 87
42 36 16
42 37 41
42 38 41
42 39 63
42 40 39
42 41 5
43 0 64
43 1 86
43 2 10
43 3 82
43 4 70
43 5 34
43 6 33
43 7 53
43 8 38
43 9 58
43 10 86
43 11 15
43 12 54
43 13 61
43 14 82
43 15 25
43 16 90
43 17 38
43 18 21
43 19 62
43 20 43
43 21 81
43 22 80
43 23 82
43 24 57
43 25 78
43 26 82
43 27 53
43 28 22
43 29 62
43 30 44
43 31 80
43 32 14
43 33 73
43 34 4
43 35 61
43 36 39
43 37 51
43 38 53
43 39 45
43 40 79
43 41 78
43 42 49
44 0 74
44 1 62
44 2 22
44 3 77
44 4 20
44 5 89
44 6 63
44 7 73
44 8 75
44 9 18
44 10 98
44 11 48
44 12 32
44 13 63
44 14 56
44 15 60
44 16 69
44 17 61
44 18 73
44 19 27
44 20 38
44 21 34
44 22 11
44 23 81
44 24 3
44 25 19
44 26 3
44 27 7
44 28 91
44 29 77
44 30 80
44 31 13
44 32 43
44 33 72
44 34 4
44 35 19
44 36 84
44 37 1
44 38 5
44 39 81
44 40 46
44 41 12
44 42 11
44 43 67
45 0 12
45 1 36
45 2 6
45 3 63
45 4 75
45 5 29
45 6 57
45 7 69
45 8 12
45 9 84
45 10 3
45 11 18
45 12 29
45 13 81
45 14 97
45 15 30
45 16 28
45 17 67
45 18 24
45 19 75
45 20 1
45 21 92
45 22 61
45 23 16
45 24 45
45 25 40
45 26 45
45 27 47
45 28 53
45 29 31
45 30 54
45 31 63
45 32 49
45 33 96
45 34 28
45 35 5
45 36 29
45 37 20
45 38 79
45 39 83
45 40 65
45 41 40
45 42 80
45 43 73
45 44 68
46 0 22
46 1 11
46 2 16
46 3 12
46 4 58
46 5 13
46 6 97
46 7 73
46 8 61
46 9 88
46 10 64
46 11 36
46 12 45
46 13 28
46 14 16
46 15 70
46 16 21
46 17 66
46 18 77
46 19 67
46 20 40
46 21 95
46 22 19
46 23 18
46 24 74
46 25 78
46 26 29
46 27 45
46 28 8
46 29 62
46 30 4
46 31 25
46 32 89
46 33 60
46 34 35
46 35 79
46 36 41
46 37 57
46 38 14
46 39 2
46 40 71
46 41 83
46 42 63
46 43 68
46 44 97
46 45 19
47 0 88
47 1 23
47 2 81
47 3 56
47 4 86
47 5 58
47 6 60
47 7 22
47 8 77
47 9 31
47 10 87
47 11 29
47 12 26
47 13 63
47 14 44
47 15 30
47 16 82
47 17 44
47 18 87
47 19 64
47 20 48
47 21 15
47 22 10
47 23 43
47 24 58
47 25 12
47 26 75
47 27 15
47 28 34
47 29 89
47 30 28
47 31 78
47 32 33
47 33 64
47 34 79
47 35 71
47 36 14
47 37 44
47 38 56
47 39 32
47 40 96
47 41 18
47 42 27
47 43 10
47 44 74
47 45 48
47 46 65
48 0 86
48 1 7
48 2 75
48 3 1
48 4 12
48 5 21
48 6 22
48 7 76
48 8 97
48 9 67
48 10 73
48 11 13
48 12 86
48 13 32
48 14 53
48 15 43
48 16 19
48 17 10
48 18 34
48 19 69
48 20 58
48 21 49
48 22 44
48 23 52
48 24 20
48 25 64
48 26 62
48 27 54
48 28 67
48 29 63
48 30 20
48 31 66
48 32 23
48 33 25
48 34 39
48 35 7
48 36 28
48 37 43
48 38 77
48 39 81
48 40 49
48 41 2
48 42 70
48 43 17
48 44 4
48 45 64
48 46 86
48 47 34
49 0 79
49 1 80
49 2 27
49 3 4
49 4 33
49 5 60
49 6 39
49 7 14
49 8 19
49 9 47
49 10 41
49 11 31
49 12 80
49 13 93
49 14 52
49 15 38
49 16 88
49 17 41
49 18 95
49 19 92
49 20 36
49 21 42
49 22 6
49 23 17
49 24 1
49 25 67
49 26 65
49 27 34
49 28 38
49 29 1
49 30 50
49 31 92
49 32 81
49 33 24
49 34 55
49 35 57
49 36 45
49 37 11
49 38 39
49 39 63
49 40 67
49 41 11
49 42 91
49 43 42
49 44 30
49 45 90
49 46 36
49 47 79
49 48 49
50 0 39
50 1 3
50 2 66
50 3 26
50 4 97
50 5 43
50 6 38
50 7 93
50 8 18
50 9 63
50 10 39
50 11 95
50 12 99
50 13 8
50 14 29
50 15 3
50 16 56
50 17 20
50 18 29
50 19 43
50 20 77
50 21 46
50 22 89
50 23 72
50 24 35
50 25 80
50 26 5
50 27 62
50 28 17
50 29 48
50 30 16
50 31 59
50 32 94
50 33 93
50 34 77
50 35 21
50 36 56
50 37 2
50 38 78
50 39 66
50 40 83
50 41 82
50 42 50
50 43 76
50 44 12
50 45 92
50 46 88
50 47 41
50 48 39
50 49 71
51 0 70
51 1 38
51 2 59
51 3 23
51 4 74
51 5 74
51 6 25
51 7 64
51 8 92
51 9 52
51 10 96
51 11 18
51 12 14
51 13 22
51 14 87
51 15 28
51 16 31
51 17 39
51 18 55
51 19 36
51 20 66
51 21 29
51 22 77
51 23 12
51 24 45
51 25 48
51 26 6
51 27 68
51 28 61
51 29 76
51 30 4
51 31 75
51 32 96
51 33 73
51 34 2
51 35 58
51 36 99
51 37 18
51 38 33
51 39 61
51 40 41
51 41 73
51 42 17
51 43 89
51 44 95
51 45 63
51 46 23
51 47 71
51 48 4
51 49 62
51 50 25
52 0 6
52 1 40
52 2 27
52 3 18
52 4 85
52 5 75
52 6 8
52 7 76
52 8 100
52 9 5
52 10 38
52 11 59
52 12 82
52 13 97
52 14 87
52 15 8
52 16 26
52 17 63
52 18 13
52 19 69
52 20 8
52 21 73
52 22 61
52 23 59
52 24 87
52 25 55
52 26 85
52 27 48
52 28 48
52 29 58
52 30 3
52 31 17
52 32 47
52 33 66
52 34 1
52 35 39
52 36 40
52 37 85
52 38 45
52 39 62
52 40 18
52 41 58
52 42 73
52 43 13
52 44 89
52 45 62
52 46 79
52 47 52
52 48 63
52 49 3
52 50 2
52 51 21
53 0 36
53 1 7
53 2 78
53 3 3
53 4 86
53 5 77
53 6 42
53 7 60
53 8 20
53 9 60
53 10 65
53 11 12
53 12 35
53 13 52
53 14 59
53 15 8
53 16 87
53 17 24
53 18 11
53 19 65
53 20 80
53 21 51
53 22 10
53 23 85
53 24 7
53 25 87
53 26 77
53 27 99
53 28 24
53 29 1
53 30 22
53 31 67
53 32 28
53 33 77
53 34 80
53 35 48
53 36 73
53 37 46
53 38 4
53 39 27
53 40 39
53 41 92
53 42 14
53 43 37
53 44 46
53 45 62
53 46 39
53 47 43
53 48 76
53 49 63
53 50 84
53 51 61
53 52 43
54 0 28
54 1 22
54 2 22
54 3 27
54 4 96
54 5 99
54 6 19
54 7 51
54 8 7
54 9 78
54 10 91
54 11 89
54 12 46
54 13 84
54 14 27
54 15 13
54 16 68
54 17 17
54 18 4
54 19 24
54 20 71
54 21 41
54 22 83
54 23 29
54 24 33
54 25 75
54 26 25
54 27 57
54 28 10
54 29 33
54 30 19
54 31 23
54 32 61
54 33 98
54 34 15
54 35 82
54 36 52
54 37 24
54 38 3
54 39 41
54 40 50
54 41 2
54 42 100
54 43 10
54 44 22
54 45 29
54 46 22
54 47 17
54 48 83
54 49 74
54 50 48
54 51 19
54 52 63
54 53 26
